14° run output:
{
    "Function": "euclidB500.tsp",
    "Problem dimension": [
        89,
        31,
        417,
        485,
        67,
        250,
        176,
        246,
        166,
        66,
        237,
        58,
        217,
        309,
        279,
        43,
        410,
        72,
        493,
        128,
        448,
        180,
        468,
        229,
        204,
        102,
        97,
        95,
        233,
        371,
        133,
        363,
        232,
        310,
        138,
        439,
        327,
        188,
        251,
        457,
        366,
        288,
        64,
        445,
        23,
        466,
        33,
        196,
        424,
        272,
        320,
        221,
        306,
        219,
        415,
        127,
        57,
        377,
        175,
        42,
        222,
        495,
        149,
        378,
        121,
        15,
        269,
        34,
        123,
        155,
        469,
        256,
        273,
        16,
        38,
        486,
        399,
        395,
        247,
        260,
        407,
        70,
        333,
        328,
        99,
        172,
        340,
        77,
        244,
        120,
        119,
        404,
        45,
        322,
        274,
        478,
        56,
        452,
        391,
        100,
        71,
        498,
        186,
        8,
        436,
        60,
        162,
        192,
        345,
        264,
        191,
        107,
        13,
        195,
        5,
        129,
        298,
        385,
        442,
        303,
        430,
        199,
        437,
        161,
        241,
        164,
        331,
        76,
        236,
        299,
        36,
        185,
        402,
        370,
        358,
        400,
        413,
        156,
        135,
        115,
        242,
        483,
        49,
        146,
        268,
        490,
        224,
        27,
        412,
        220,
        408,
        143,
        86,
        343,
        479,
        291,
        342,
        435,
        420,
        216,
        252,
        261,
        111,
        409,
        367,
        392,
        50,
        444,
        227,
        440,
        387,
        98,
        355,
        421,
        147,
        17,
        359,
        239,
        406,
        20,
        2,
        82,
        321,
        416,
        338,
        234,
        426,
        388,
        81,
        152,
        465,
        116,
        19,
        383,
        459,
        364,
        314,
        68,
        210,
        169,
        259,
        290,
        330,
        21,
        257,
        137,
        476,
        92,
        380,
        167,
        182,
        349,
        337,
        90,
        130,
        266,
        384,
        25,
        103,
        292,
        348,
        375,
        278,
        347,
        474,
        125,
        104,
        113,
        427,
        231,
        401,
        197,
        65,
        150,
        324,
        9,
        158,
        6,
        281,
        209,
        312,
        4,
        369,
        463,
        73,
        18,
        319,
        381,
        325,
        301,
        200,
        285,
        497,
        449,
        238,
        305,
        323,
        389,
        37,
        492,
        88,
        126,
        282,
        215,
        297,
        230,
        405,
        339,
        434,
        226,
        396,
        105,
        454,
        202,
        428,
        382,
        393,
        179,
        85,
        263,
        29,
        207,
        489,
        205,
        106,
        362,
        118,
        441,
        283,
        311,
        208,
        80,
        344,
        157,
        132,
        295,
        47,
        255,
        39,
        253,
        341,
        28,
        35,
        475,
        318,
        494,
        83,
        1,
        87,
        397,
        326,
        464,
        351,
        44,
        154,
        213,
        422,
        429,
        477,
        308,
        398,
        32,
        62,
        218,
        284,
        336,
        267,
        276,
        78,
        203,
        296,
        136,
        294,
        302,
        53,
        159,
        423,
        173,
        315,
        433,
        335,
        460,
        145,
        372,
        181,
        425,
        390,
        171,
        293,
        334,
        30,
        114,
        122,
        212,
        52,
        317,
        48,
        357,
        360,
        482,
        74,
        59,
        461,
        69,
        496,
        109,
        356,
        183,
        376,
        163,
        61,
        431,
        277,
        300,
        240,
        262,
        153,
        455,
        96,
        140,
        54,
        193,
        93,
        473,
        228,
        254,
        3,
        352,
        307,
        142,
        450,
        134,
        24,
        63,
        55,
        368,
        451,
        144,
        258,
        453,
        79,
        91,
        491,
        386,
        101,
        141,
        403,
        124,
        148,
        168,
        51,
        373,
        194,
        7,
        139,
        353,
        131,
        270,
        189,
        462,
        187,
        75,
        223,
        418,
        235,
        354,
        201,
        456,
        41,
        414,
        243,
        22,
        484,
        488,
        211,
        374,
        350,
        184,
        14,
        225,
        365,
        304,
        12,
        361,
        472,
        265,
        94,
        313,
        471,
        443,
        467,
        271,
        248,
        289,
        112,
        151,
        245,
        206,
        480,
        177,
        332,
        11,
        346,
        432,
        46,
        411,
        280,
        26,
        10,
        198,
        446,
        0,
        110,
        108,
        165,
        178,
        174,
        84,
        316,
        487,
        499,
        117,
        329,
        170,
        40,
        287,
        470,
        160,
        379,
        438,
        458,
        249,
        190,
        286,
        214,
        275,
        481,
        394,
        447,
        419
    ],
    "Global Optimum": 0,
    "Algorithm": "Genetic algorithm",
    "Parameters": {
        "population": 30,
        "offspring": 30,
        "mutation probability": 0.002,
        "crossover probability": 0.9
    },
    "Fitness": 557338,
    "Solution": [
        89,
        31,
        417,
        485,
        67,
        250,
        176,
        246,
        166,
        66,
        237,
        58,
        217,
        309,
        279,
        43,
        410,
        72,
        493,
        128,
        448,
        180,
        468,
        229,
        204,
        102,
        97,
        95,
        233,
        371,
        133,
        363,
        232,
        310,
        138,
        439,
        327,
        188,
        251,
        457,
        366,
        288,
        64,
        445,
        23,
        466,
        33,
        196,
        424,
        272,
        320,
        221,
        306,
        219,
        415,
        127,
        57,
        377,
        175,
        42,
        222,
        495,
        149,
        378,
        121,
        15,
        269,
        34,
        123,
        155,
        469,
        256,
        273,
        16,
        38,
        486,
        399,
        395,
        247,
        260,
        407,
        70,
        333,
        328,
        99,
        172,
        340,
        77,
        244,
        120,
        119,
        404,
        45,
        322,
        274,
        478,
        56,
        452,
        391,
        100,
        71,
        498,
        186,
        8,
        436,
        60,
        162,
        192,
        345,
        264,
        191,
        107,
        13,
        195,
        5,
        129,
        298,
        385,
        442,
        303,
        430,
        199,
        437,
        161,
        241,
        164,
        331,
        76,
        236,
        299,
        36,
        185,
        402,
        370,
        358,
        400,
        413,
        156,
        135,
        115,
        242,
        483,
        49,
        146,
        268,
        490,
        224,
        27,
        412,
        220,
        408,
        143,
        86,
        343,
        479,
        291,
        342,
        435,
        420,
        216,
        252,
        261,
        111,
        409,
        367,
        392,
        50,
        444,
        227,
        440,
        387,
        98,
        355,
        421,
        147,
        17,
        359,
        239,
        406,
        20,
        2,
        82,
        321,
        416,
        338,
        234,
        426,
        388,
        81,
        152,
        465,
        116,
        19,
        383,
        459,
        364,
        314,
        68,
        210,
        169,
        259,
        290,
        330,
        21,
        257,
        137,
        476,
        92,
        380,
        167,
        182,
        349,
        337,
        90,
        130,
        266,
        384,
        25,
        103,
        292,
        348,
        375,
        278,
        347,
        474,
        125,
        104,
        113,
        427,
        231,
        401,
        197,
        65,
        150,
        324,
        9,
        158,
        6,
        281,
        209,
        312,
        4,
        369,
        463,
        73,
        18,
        319,
        381,
        325,
        301,
        200,
        285,
        497,
        449,
        238,
        305,
        323,
        389,
        37,
        492,
        88,
        126,
        282,
        215,
        297,
        230,
        405,
        339,
        434,
        226,
        396,
        105,
        454,
        202,
        428,
        382,
        393,
        179,
        85,
        263,
        29,
        207,
        489,
        205,
        106,
        362,
        118,
        441,
        283,
        311,
        208,
        80,
        344,
        157,
        132,
        295,
        47,
        255,
        39,
        253,
        341,
        28,
        35,
        475,
        318,
        494,
        83,
        1,
        87,
        397,
        326,
        464,
        351,
        44,
        154,
        213,
        422,
        429,
        477,
        308,
        398,
        32,
        62,
        218,
        284,
        336,
        267,
        276,
        78,
        203,
        296,
        136,
        294,
        302,
        53,
        159,
        423,
        173,
        315,
        433,
        335,
        460,
        145,
        372,
        181,
        425,
        390,
        171,
        293,
        334,
        30,
        114,
        122,
        212,
        52,
        317,
        48,
        357,
        360,
        482,
        74,
        59,
        461,
        69,
        496,
        109,
        356,
        183,
        376,
        163,
        61,
        431,
        277,
        300,
        240,
        262,
        153,
        455,
        96,
        140,
        54,
        193,
        93,
        473,
        228,
        254,
        3,
        352,
        307,
        142,
        450,
        134,
        24,
        63,
        55,
        368,
        451,
        144,
        258,
        453,
        79,
        91,
        491,
        386,
        101,
        141,
        403,
        124,
        148,
        168,
        51,
        373,
        194,
        7,
        139,
        353,
        131,
        270,
        189,
        462,
        187,
        75,
        223,
        418,
        235,
        354,
        201,
        456,
        41,
        414,
        243,
        22,
        484,
        488,
        211,
        374,
        350,
        184,
        14,
        225,
        365,
        304,
        12,
        361,
        472,
        265,
        94,
        313,
        471,
        443,
        467,
        271,
        248,
        289,
        112,
        151,
        245,
        206,
        480,
        177,
        332,
        11,
        346,
        432,
        46,
        411,
        280,
        26,
        10,
        198,
        446,
        0,
        110,
        108,
        165,
        178,
        174,
        84,
        316,
        487,
        499,
        117,
        329,
        170,
        40,
        287,
        470,
        160,
        379,
        438,
        458,
        249,
        190,
        286,
        214,
        275,
        481,
        394,
        447,
        419
    ],
    "Nb of functions evaluations": 400020,
    "Computational time in seconds": 1813.4077563285828,
    "Stopping criterion in evaluations": 400000
}